100
1000
200
200
198
197
197
196
196
196
196
196
194
194
193
193
193
192
192
191
191
191
190
190
190
190
189
187
187
186
185
185
185
184
184
184
183
183
181
180
180
179
178
178
178
178
176
176
175
175
175
174
173
173
173
173
173
172
172
170
170
168
168
168
167
166
166
166
165
165
165
164
164
164
164
164
163
162
162
162
162
161
161
160
157
156
156
155
155
155
155
154
154
153
152
152
151
151
151
150
150
150
